p cnf 390 1324
c p weight 156 -1 0
c p weight -156 1 0
c p weight 158 6.12323399573676603586882014729198302312846062338790031898128063403419218957424163818359375E-17 0
c p weight -158 1 0
c p weight 159 1 0
c p weight -159 1 0
c p weight 160 -1 0
c p weight -160 1 0
c p weight 162 -1 0
c p weight -162 1 0
c p weight 165 -1 0
c p weight -165 1 0
c p weight 168 -1 0
c p weight -168 1 0
c p weight 171 -1 0
c p weight -171 1 0
c p weight 174 -1 0
c p weight -174 1 0
c p weight 177 -1 0
c p weight -177 1 0
c p weight 180 -1 0
c p weight -180 1 0
c p weight 183 -1 0
c p weight -183 1 0
c p weight 186 -1 0
c p weight -186 1 0
c p weight 189 -1 0
c p weight -189 1 0
c p weight 192 -1 0
c p weight -192 1 0
c p weight 195 -1 0
c p weight -195 1 0
c p weight 198 -1 0
c p weight -198 1 0
c p weight 201 -1 0
c p weight -201 1 0
c p weight 204 -1 0
c p weight -204 1 0
c p weight 207 -1 0
c p weight -207 1 0
c p weight 210 -1 0
c p weight -210 1 0
c p weight 213 -1 0
c p weight -213 1 0
c p weight 216 -1 0
c p weight -216 1 0
c p weight 219 -1 0
c p weight -219 1 0
c p weight 222 -1 0
c p weight -222 1 0
c p weight 225 -1 0
c p weight -225 1 0
c p weight 228 -1 0
c p weight -228 1 0
c p weight 231 -1 0
c p weight -231 1 0
c p weight 234 -1 0
c p weight -234 1 0
c p weight 237 -1 0
c p weight -237 1 0
c p weight 240 -1 0
c p weight -240 1 0
c p weight 243 -1 0
c p weight -243 1 0
c p weight 246 -1 0
c p weight -246 1 0
c p weight 249 -1 0
c p weight -249 1 0
c p weight 252 -1 0
c p weight -252 1 0
c p weight 255 -1 0
c p weight -255 1 0
c p weight 258 -1 0
c p weight -258 1 0
c p weight 261 -1 0
c p weight -261 1 0
c p weight 264 -1 0
c p weight -264 1 0
c p weight 267 -1 0
c p weight -267 1 0
c p weight 270 -1 0
c p weight -270 1 0
c p weight 273 -1 0
c p weight -273 1 0
c p weight 276 -1 0
c p weight -276 1 0
c p weight 279 -1 0
c p weight -279 1 0
c p weight 282 -1 0
c p weight -282 1 0
c p weight 285 -1 0
c p weight -285 1 0
c p weight 288 -1 0
c p weight -288 1 0
c p weight 291 -1 0
c p weight -291 1 0
c p weight 294 -1 0
c p weight -294 1 0
c p weight 297 -1 0
c p weight -297 1 0
c p weight 300 -1 0
c p weight -300 1 0
c p weight 303 -1 0
c p weight -303 1 0
c p weight 306 -1 0
c p weight -306 1 0
c p weight 309 -1 0
c p weight -309 1 0
c p weight 312 -1 0
c p weight -312 1 0
c p weight 315 -1 0
c p weight -315 1 0
c p weight 318 -1 0
c p weight -318 1 0
c p weight 321 -1 0
c p weight -321 1 0
c p weight 324 -1 0
c p weight -324 1 0
c p weight 327 -1 0
c p weight -327 1 0
c p weight 330 -1 0
c p weight -330 1 0
c p weight 333 -1 0
c p weight -333 1 0
c p weight 336 -1 0
c p weight -336 1 0
c p weight 339 -1 0
c p weight -339 1 0
c p weight 342 -1 0
c p weight -342 1 0
c p weight 345 -1 0
c p weight -345 1 0
c p weight 348 -1 0
c p weight -348 1 0
c p weight 351 -1 0
c p weight -351 1 0
c p weight 354 -1 0
c p weight -354 1 0
c p weight 357 -1 0
c p weight -357 1 0
c p weight 360 -1 0
c p weight -360 1 0
c p weight 363 -1 0
c p weight -363 1 0
c p weight 366 -1 0
c p weight -366 1 0
c p weight 369 -1 0
c p weight -369 1 0
c p weight 372 -1 0
c p weight -372 1 0
c p weight 375 -1 0
c p weight -375 1 0
c p weight 378 -1 0
c p weight -378 1 0
c p weight 381 -1 0
c p weight -381 1 0
c p weight 384 -1 0
c p weight -384 1 0
c p weight 387 -1 0
c p weight -387 1 0
c p weight 390 -1 0
c p weight -390 1 0
-153 0
-151 0
-149 0
-147 0
-145 0
-143 0
-141 0
-139 0
-137 0
-135 0
-133 0
-131 0
-129 0
-127 0
-125 0
-123 0
-121 0
-119 0
-117 0
-115 0
-113 0
-111 0
-109 0
-107 0
-105 0
-103 0
-101 0
-99 0
-97 0
-95 0
-93 0
-91 0
-89 0
-87 0
-85 0
-83 0
-81 0
-79 0
-77 0
-75 0
-73 0
-71 0
-69 0
-67 0
-65 0
-63 0
-61 0
-59 0
-57 0
-55 0
-53 0
-51 0
-49 0
-47 0
-45 0
-43 0
-41 0
-39 0
-37 0
-35 0
-33 0
-31 0
-29 0
-27 0
-25 0
-23 0
-21 0
-19 0
-17 0
-15 0
-13 0
-11 0
-9 0
-7 0
-5 0
-3 0
-1 0
155 153 -154 0
155 -153 154 0
-155 153 154 0
-155 -153 -154 0
-156 153 0
-156 154 0
156 -153 -154 0
157 -153 155 0
-157 153 155 0
-158 155 0
157 -158 -153 0
-157 -158 153 0
157 158 153 -155 0
-157 158 -153 -155 0
-159 155 0
157 -159 153 0
-157 -159 -153 0
157 159 -153 -155 0
-157 159 153 -155 0
-160 157 0
-160 155 0
-160 -153 0
160 -157 153 -155 0
161 157 -155 0
161 -157 155 0
-161 157 155 0
-161 -157 -155 0
-162 157 0
-162 155 0
162 -157 -155 0
163 157 -151 0
163 -157 151 0
-163 157 151 0
-163 -157 -151 0
164 161 -152 0
164 -161 152 0
-164 161 152 0
-164 -161 -152 0
-165 157 0
-165 152 0
-165 151 -161 0
-165 -151 161 0
165 -157 151 161 -152 0
165 -157 -151 -161 -152 0
166 163 -149 0
166 -163 149 0
-166 163 149 0
-166 -163 -149 0
167 152 -150 0
167 -152 150 0
-167 152 150 0
-167 -152 -150 0
-168 163 0
-168 150 0
-168 149 -152 0
-168 -149 152 0
168 -163 149 152 -150 0
168 -163 -149 -152 -150 0
169 166 -147 0
169 -166 147 0
-169 166 147 0
-169 -166 -147 0
170 150 -148 0
170 -150 148 0
-170 150 148 0
-170 -150 -148 0
-171 166 0
-171 148 0
-171 147 -150 0
-171 -147 150 0
171 -166 147 150 -148 0
171 -166 -147 -150 -148 0
172 169 -145 0
172 -169 145 0
-172 169 145 0
-172 -169 -145 0
173 148 -146 0
173 -148 146 0
-173 148 146 0
-173 -148 -146 0
-174 169 0
-174 146 0
-174 145 -148 0
-174 -145 148 0
174 -169 145 148 -146 0
174 -169 -145 -148 -146 0
175 172 -143 0
175 -172 143 0
-175 172 143 0
-175 -172 -143 0
176 146 -144 0
176 -146 144 0
-176 146 144 0
-176 -146 -144 0
-177 172 0
-177 144 0
-177 143 -146 0
-177 -143 146 0
177 -172 143 146 -144 0
177 -172 -143 -146 -144 0
178 175 -141 0
178 -175 141 0
-178 175 141 0
-178 -175 -141 0
179 144 -142 0
179 -144 142 0
-179 144 142 0
-179 -144 -142 0
-180 175 0
-180 142 0
-180 141 -144 0
-180 -141 144 0
180 -175 141 144 -142 0
180 -175 -141 -144 -142 0
181 178 -139 0
181 -178 139 0
-181 178 139 0
-181 -178 -139 0
182 142 -140 0
182 -142 140 0
-182 142 140 0
-182 -142 -140 0
-183 178 0
-183 140 0
-183 139 -142 0
-183 -139 142 0
183 -178 139 142 -140 0
183 -178 -139 -142 -140 0
184 181 -137 0
184 -181 137 0
-184 181 137 0
-184 -181 -137 0
185 140 -138 0
185 -140 138 0
-185 140 138 0
-185 -140 -138 0
-186 181 0
-186 138 0
-186 137 -140 0
-186 -137 140 0
186 -181 137 140 -138 0
186 -181 -137 -140 -138 0
187 184 -135 0
187 -184 135 0
-187 184 135 0
-187 -184 -135 0
188 138 -136 0
188 -138 136 0
-188 138 136 0
-188 -138 -136 0
-189 184 0
-189 136 0
-189 135 -138 0
-189 -135 138 0
189 -184 135 138 -136 0
189 -184 -135 -138 -136 0
190 187 -133 0
190 -187 133 0
-190 187 133 0
-190 -187 -133 0
191 136 -134 0
191 -136 134 0
-191 136 134 0
-191 -136 -134 0
-192 187 0
-192 134 0
-192 133 -136 0
-192 -133 136 0
192 -187 133 136 -134 0
192 -187 -133 -136 -134 0
193 190 -131 0
193 -190 131 0
-193 190 131 0
-193 -190 -131 0
194 134 -132 0
194 -134 132 0
-194 134 132 0
-194 -134 -132 0
-195 190 0
-195 132 0
-195 131 -134 0
-195 -131 134 0
195 -190 131 134 -132 0
195 -190 -131 -134 -132 0
196 193 -129 0
196 -193 129 0
-196 193 129 0
-196 -193 -129 0
197 132 -130 0
197 -132 130 0
-197 132 130 0
-197 -132 -130 0
-198 193 0
-198 130 0
-198 129 -132 0
-198 -129 132 0
198 -193 129 132 -130 0
198 -193 -129 -132 -130 0
199 196 -127 0
199 -196 127 0
-199 196 127 0
-199 -196 -127 0
200 130 -128 0
200 -130 128 0
-200 130 128 0
-200 -130 -128 0
-201 196 0
-201 128 0
-201 127 -130 0
-201 -127 130 0
201 -196 127 130 -128 0
201 -196 -127 -130 -128 0
202 199 -125 0
202 -199 125 0
-202 199 125 0
-202 -199 -125 0
203 128 -126 0
203 -128 126 0
-203 128 126 0
-203 -128 -126 0
-204 199 0
-204 126 0
-204 125 -128 0
-204 -125 128 0
204 -199 125 128 -126 0
204 -199 -125 -128 -126 0
205 202 -123 0
205 -202 123 0
-205 202 123 0
-205 -202 -123 0
206 126 -124 0
206 -126 124 0
-206 126 124 0
-206 -126 -124 0
-207 202 0
-207 124 0
-207 123 -126 0
-207 -123 126 0
207 -202 123 126 -124 0
207 -202 -123 -126 -124 0
208 205 -121 0
208 -205 121 0
-208 205 121 0
-208 -205 -121 0
209 124 -122 0
209 -124 122 0
-209 124 122 0
-209 -124 -122 0
-210 205 0
-210 122 0
-210 121 -124 0
-210 -121 124 0
210 -205 121 124 -122 0
210 -205 -121 -124 -122 0
211 208 -119 0
211 -208 119 0
-211 208 119 0
-211 -208 -119 0
212 122 -120 0
212 -122 120 0
-212 122 120 0
-212 -122 -120 0
-213 208 0
-213 120 0
-213 119 -122 0
-213 -119 122 0
213 -208 119 122 -120 0
213 -208 -119 -122 -120 0
214 211 -117 0
214 -211 117 0
-214 211 117 0
-214 -211 -117 0
215 120 -118 0
215 -120 118 0
-215 120 118 0
-215 -120 -118 0
-216 211 0
-216 118 0
-216 117 -120 0
-216 -117 120 0
216 -211 117 120 -118 0
216 -211 -117 -120 -118 0
217 214 -115 0
217 -214 115 0
-217 214 115 0
-217 -214 -115 0
218 118 -116 0
218 -118 116 0
-218 118 116 0
-218 -118 -116 0
-219 214 0
-219 116 0
-219 115 -118 0
-219 -115 118 0
219 -214 115 118 -116 0
219 -214 -115 -118 -116 0
220 217 -113 0
220 -217 113 0
-220 217 113 0
-220 -217 -113 0
221 116 -114 0
221 -116 114 0
-221 116 114 0
-221 -116 -114 0
-222 217 0
-222 114 0
-222 113 -116 0
-222 -113 116 0
222 -217 113 116 -114 0
222 -217 -113 -116 -114 0
223 220 -111 0
223 -220 111 0
-223 220 111 0
-223 -220 -111 0
224 114 -112 0
224 -114 112 0
-224 114 112 0
-224 -114 -112 0
-225 220 0
-225 112 0
-225 111 -114 0
-225 -111 114 0
225 -220 111 114 -112 0
225 -220 -111 -114 -112 0
226 223 -109 0
226 -223 109 0
-226 223 109 0
-226 -223 -109 0
227 112 -110 0
227 -112 110 0
-227 112 110 0
-227 -112 -110 0
-228 223 0
-228 110 0
-228 109 -112 0
-228 -109 112 0
228 -223 109 112 -110 0
228 -223 -109 -112 -110 0
229 226 -107 0
229 -226 107 0
-229 226 107 0
-229 -226 -107 0
230 110 -108 0
230 -110 108 0
-230 110 108 0
-230 -110 -108 0
-231 226 0
-231 108 0
-231 107 -110 0
-231 -107 110 0
231 -226 107 110 -108 0
231 -226 -107 -110 -108 0
232 229 -105 0
232 -229 105 0
-232 229 105 0
-232 -229 -105 0
233 108 -106 0
233 -108 106 0
-233 108 106 0
-233 -108 -106 0
-234 229 0
-234 106 0
-234 105 -108 0
-234 -105 108 0
234 -229 105 108 -106 0
234 -229 -105 -108 -106 0
235 232 -103 0
235 -232 103 0
-235 232 103 0
-235 -232 -103 0
236 106 -104 0
236 -106 104 0
-236 106 104 0
-236 -106 -104 0
-237 232 0
-237 104 0
-237 103 -106 0
-237 -103 106 0
237 -232 103 106 -104 0
237 -232 -103 -106 -104 0
238 235 -101 0
238 -235 101 0
-238 235 101 0
-238 -235 -101 0
239 104 -102 0
239 -104 102 0
-239 104 102 0
-239 -104 -102 0
-240 235 0
-240 102 0
-240 101 -104 0
-240 -101 104 0
240 -235 101 104 -102 0
240 -235 -101 -104 -102 0
241 238 -99 0
241 -238 99 0
-241 238 99 0
-241 -238 -99 0
242 102 -100 0
242 -102 100 0
-242 102 100 0
-242 -102 -100 0
-243 238 0
-243 100 0
-243 99 -102 0
-243 -99 102 0
243 -238 99 102 -100 0
243 -238 -99 -102 -100 0
244 241 -97 0
244 -241 97 0
-244 241 97 0
-244 -241 -97 0
245 100 -98 0
245 -100 98 0
-245 100 98 0
-245 -100 -98 0
-246 241 0
-246 98 0
-246 97 -100 0
-246 -97 100 0
246 -241 97 100 -98 0
246 -241 -97 -100 -98 0
247 244 -95 0
247 -244 95 0
-247 244 95 0
-247 -244 -95 0
248 98 -96 0
248 -98 96 0
-248 98 96 0
-248 -98 -96 0
-249 244 0
-249 96 0
-249 95 -98 0
-249 -95 98 0
249 -244 95 98 -96 0
249 -244 -95 -98 -96 0
250 247 -93 0
250 -247 93 0
-250 247 93 0
-250 -247 -93 0
251 96 -94 0
251 -96 94 0
-251 96 94 0
-251 -96 -94 0
-252 247 0
-252 94 0
-252 93 -96 0
-252 -93 96 0
252 -247 93 96 -94 0
252 -247 -93 -96 -94 0
253 250 -91 0
253 -250 91 0
-253 250 91 0
-253 -250 -91 0
254 94 -92 0
254 -94 92 0
-254 94 92 0
-254 -94 -92 0
-255 250 0
-255 92 0
-255 91 -94 0
-255 -91 94 0
255 -250 91 94 -92 0
255 -250 -91 -94 -92 0
256 253 -89 0
256 -253 89 0
-256 253 89 0
-256 -253 -89 0
257 92 -90 0
257 -92 90 0
-257 92 90 0
-257 -92 -90 0
-258 253 0
-258 90 0
-258 89 -92 0
-258 -89 92 0
258 -253 89 92 -90 0
258 -253 -89 -92 -90 0
259 256 -87 0
259 -256 87 0
-259 256 87 0
-259 -256 -87 0
260 90 -88 0
260 -90 88 0
-260 90 88 0
-260 -90 -88 0
-261 256 0
-261 88 0
-261 87 -90 0
-261 -87 90 0
261 -256 87 90 -88 0
261 -256 -87 -90 -88 0
262 259 -85 0
262 -259 85 0
-262 259 85 0
-262 -259 -85 0
263 88 -86 0
263 -88 86 0
-263 88 86 0
-263 -88 -86 0
-264 259 0
-264 86 0
-264 85 -88 0
-264 -85 88 0
264 -259 85 88 -86 0
264 -259 -85 -88 -86 0
265 262 -83 0
265 -262 83 0
-265 262 83 0
-265 -262 -83 0
266 86 -84 0
266 -86 84 0
-266 86 84 0
-266 -86 -84 0
-267 262 0
-267 84 0
-267 83 -86 0
-267 -83 86 0
267 -262 83 86 -84 0
267 -262 -83 -86 -84 0
268 265 -81 0
268 -265 81 0
-268 265 81 0
-268 -265 -81 0
269 84 -82 0
269 -84 82 0
-269 84 82 0
-269 -84 -82 0
-270 265 0
-270 82 0
-270 81 -84 0
-270 -81 84 0
270 -265 81 84 -82 0
270 -265 -81 -84 -82 0
271 268 -79 0
271 -268 79 0
-271 268 79 0
-271 -268 -79 0
272 82 -80 0
272 -82 80 0
-272 82 80 0
-272 -82 -80 0
-273 268 0
-273 80 0
-273 79 -82 0
-273 -79 82 0
273 -268 79 82 -80 0
273 -268 -79 -82 -80 0
274 271 -77 0
274 -271 77 0
-274 271 77 0
-274 -271 -77 0
275 80 -78 0
275 -80 78 0
-275 80 78 0
-275 -80 -78 0
-276 271 0
-276 78 0
-276 77 -80 0
-276 -77 80 0
276 -271 77 80 -78 0
276 -271 -77 -80 -78 0
277 274 -75 0
277 -274 75 0
-277 274 75 0
-277 -274 -75 0
278 78 -76 0
278 -78 76 0
-278 78 76 0
-278 -78 -76 0
-279 274 0
-279 76 0
-279 75 -78 0
-279 -75 78 0
279 -274 75 78 -76 0
279 -274 -75 -78 -76 0
280 277 -73 0
280 -277 73 0
-280 277 73 0
-280 -277 -73 0
281 76 -74 0
281 -76 74 0
-281 76 74 0
-281 -76 -74 0
-282 277 0
-282 74 0
-282 73 -76 0
-282 -73 76 0
282 -277 73 76 -74 0
282 -277 -73 -76 -74 0
283 280 -71 0
283 -280 71 0
-283 280 71 0
-283 -280 -71 0
284 74 -72 0
284 -74 72 0
-284 74 72 0
-284 -74 -72 0
-285 280 0
-285 72 0
-285 71 -74 0
-285 -71 74 0
285 -280 71 74 -72 0
285 -280 -71 -74 -72 0
286 283 -69 0
286 -283 69 0
-286 283 69 0
-286 -283 -69 0
287 72 -70 0
287 -72 70 0
-287 72 70 0
-287 -72 -70 0
-288 283 0
-288 70 0
-288 69 -72 0
-288 -69 72 0
288 -283 69 72 -70 0
288 -283 -69 -72 -70 0
289 286 -67 0
289 -286 67 0
-289 286 67 0
-289 -286 -67 0
290 70 -68 0
290 -70 68 0
-290 70 68 0
-290 -70 -68 0
-291 286 0
-291 68 0
-291 67 -70 0
-291 -67 70 0
291 -286 67 70 -68 0
291 -286 -67 -70 -68 0
292 289 -65 0
292 -289 65 0
-292 289 65 0
-292 -289 -65 0
293 68 -66 0
293 -68 66 0
-293 68 66 0
-293 -68 -66 0
-294 289 0
-294 66 0
-294 65 -68 0
-294 -65 68 0
294 -289 65 68 -66 0
294 -289 -65 -68 -66 0
295 292 -63 0
295 -292 63 0
-295 292 63 0
-295 -292 -63 0
296 66 -64 0
296 -66 64 0
-296 66 64 0
-296 -66 -64 0
-297 292 0
-297 64 0
-297 63 -66 0
-297 -63 66 0
297 -292 63 66 -64 0
297 -292 -63 -66 -64 0
298 295 -61 0
298 -295 61 0
-298 295 61 0
-298 -295 -61 0
299 64 -62 0
299 -64 62 0
-299 64 62 0
-299 -64 -62 0
-300 295 0
-300 62 0
-300 61 -64 0
-300 -61 64 0
300 -295 61 64 -62 0
300 -295 -61 -64 -62 0
301 298 -59 0
301 -298 59 0
-301 298 59 0
-301 -298 -59 0
302 62 -60 0
302 -62 60 0
-302 62 60 0
-302 -62 -60 0
-303 298 0
-303 60 0
-303 59 -62 0
-303 -59 62 0
303 -298 59 62 -60 0
303 -298 -59 -62 -60 0
304 301 -57 0
304 -301 57 0
-304 301 57 0
-304 -301 -57 0
305 60 -58 0
305 -60 58 0
-305 60 58 0
-305 -60 -58 0
-306 301 0
-306 58 0
-306 57 -60 0
-306 -57 60 0
306 -301 57 60 -58 0
306 -301 -57 -60 -58 0
307 304 -55 0
307 -304 55 0
-307 304 55 0
-307 -304 -55 0
308 58 -56 0
308 -58 56 0
-308 58 56 0
-308 -58 -56 0
-309 304 0
-309 56 0
-309 55 -58 0
-309 -55 58 0
309 -304 55 58 -56 0
309 -304 -55 -58 -56 0
310 307 -53 0
310 -307 53 0
-310 307 53 0
-310 -307 -53 0
311 56 -54 0
311 -56 54 0
-311 56 54 0
-311 -56 -54 0
-312 307 0
-312 54 0
-312 53 -56 0
-312 -53 56 0
312 -307 53 56 -54 0
312 -307 -53 -56 -54 0
313 310 -51 0
313 -310 51 0
-313 310 51 0
-313 -310 -51 0
314 54 -52 0
314 -54 52 0
-314 54 52 0
-314 -54 -52 0
-315 310 0
-315 52 0
-315 51 -54 0
-315 -51 54 0
315 -310 51 54 -52 0
315 -310 -51 -54 -52 0
316 313 -49 0
316 -313 49 0
-316 313 49 0
-316 -313 -49 0
317 52 -50 0
317 -52 50 0
-317 52 50 0
-317 -52 -50 0
-318 313 0
-318 50 0
-318 49 -52 0
-318 -49 52 0
318 -313 49 52 -50 0
318 -313 -49 -52 -50 0
319 316 -47 0
319 -316 47 0
-319 316 47 0
-319 -316 -47 0
320 50 -48 0
320 -50 48 0
-320 50 48 0
-320 -50 -48 0
-321 316 0
-321 48 0
-321 47 -50 0
-321 -47 50 0
321 -316 47 50 -48 0
321 -316 -47 -50 -48 0
322 319 -45 0
322 -319 45 0
-322 319 45 0
-322 -319 -45 0
323 48 -46 0
323 -48 46 0
-323 48 46 0
-323 -48 -46 0
-324 319 0
-324 46 0
-324 45 -48 0
-324 -45 48 0
324 -319 45 48 -46 0
324 -319 -45 -48 -46 0
325 322 -43 0
325 -322 43 0
-325 322 43 0
-325 -322 -43 0
326 46 -44 0
326 -46 44 0
-326 46 44 0
-326 -46 -44 0
-327 322 0
-327 44 0
-327 43 -46 0
-327 -43 46 0
327 -322 43 46 -44 0
327 -322 -43 -46 -44 0
328 325 -41 0
328 -325 41 0
-328 325 41 0
-328 -325 -41 0
329 44 -42 0
329 -44 42 0
-329 44 42 0
-329 -44 -42 0
-330 325 0
-330 42 0
-330 41 -44 0
-330 -41 44 0
330 -325 41 44 -42 0
330 -325 -41 -44 -42 0
331 328 -39 0
331 -328 39 0
-331 328 39 0
-331 -328 -39 0
332 42 -40 0
332 -42 40 0
-332 42 40 0
-332 -42 -40 0
-333 328 0
-333 40 0
-333 39 -42 0
-333 -39 42 0
333 -328 39 42 -40 0
333 -328 -39 -42 -40 0
334 331 -37 0
334 -331 37 0
-334 331 37 0
-334 -331 -37 0
335 40 -38 0
335 -40 38 0
-335 40 38 0
-335 -40 -38 0
-336 331 0
-336 38 0
-336 37 -40 0
-336 -37 40 0
336 -331 37 40 -38 0
336 -331 -37 -40 -38 0
337 334 -35 0
337 -334 35 0
-337 334 35 0
-337 -334 -35 0
338 38 -36 0
338 -38 36 0
-338 38 36 0
-338 -38 -36 0
-339 334 0
-339 36 0
-339 35 -38 0
-339 -35 38 0
339 -334 35 38 -36 0
339 -334 -35 -38 -36 0
340 337 -33 0
340 -337 33 0
-340 337 33 0
-340 -337 -33 0
341 36 -34 0
341 -36 34 0
-341 36 34 0
-341 -36 -34 0
-342 337 0
-342 34 0
-342 33 -36 0
-342 -33 36 0
342 -337 33 36 -34 0
342 -337 -33 -36 -34 0
343 340 -31 0
343 -340 31 0
-343 340 31 0
-343 -340 -31 0
344 34 -32 0
344 -34 32 0
-344 34 32 0
-344 -34 -32 0
-345 340 0
-345 32 0
-345 31 -34 0
-345 -31 34 0
345 -340 31 34 -32 0
345 -340 -31 -34 -32 0
346 343 -29 0
346 -343 29 0
-346 343 29 0
-346 -343 -29 0
347 32 -30 0
347 -32 30 0
-347 32 30 0
-347 -32 -30 0
-348 343 0
-348 30 0
-348 29 -32 0
-348 -29 32 0
348 -343 29 32 -30 0
348 -343 -29 -32 -30 0
349 346 -27 0
349 -346 27 0
-349 346 27 0
-349 -346 -27 0
350 30 -28 0
350 -30 28 0
-350 30 28 0
-350 -30 -28 0
-351 346 0
-351 28 0
-351 27 -30 0
-351 -27 30 0
351 -346 27 30 -28 0
351 -346 -27 -30 -28 0
352 349 -25 0
352 -349 25 0
-352 349 25 0
-352 -349 -25 0
353 28 -26 0
353 -28 26 0
-353 28 26 0
-353 -28 -26 0
-354 349 0
-354 26 0
-354 25 -28 0
-354 -25 28 0
354 -349 25 28 -26 0
354 -349 -25 -28 -26 0
355 352 -23 0
355 -352 23 0
-355 352 23 0
-355 -352 -23 0
356 26 -24 0
356 -26 24 0
-356 26 24 0
-356 -26 -24 0
-357 352 0
-357 24 0
-357 23 -26 0
-357 -23 26 0
357 -352 23 26 -24 0
357 -352 -23 -26 -24 0
358 355 -21 0
358 -355 21 0
-358 355 21 0
-358 -355 -21 0
359 24 -22 0
359 -24 22 0
-359 24 22 0
-359 -24 -22 0
-360 355 0
-360 22 0
-360 21 -24 0
-360 -21 24 0
360 -355 21 24 -22 0
360 -355 -21 -24 -22 0
361 358 -19 0
361 -358 19 0
-361 358 19 0
-361 -358 -19 0
362 22 -20 0
362 -22 20 0
-362 22 20 0
-362 -22 -20 0
-363 358 0
-363 20 0
-363 19 -22 0
-363 -19 22 0
363 -358 19 22 -20 0
363 -358 -19 -22 -20 0
364 361 -17 0
364 -361 17 0
-364 361 17 0
-364 -361 -17 0
365 20 -18 0
365 -20 18 0
-365 20 18 0
-365 -20 -18 0
-366 361 0
-366 18 0
-366 17 -20 0
-366 -17 20 0
366 -361 17 20 -18 0
366 -361 -17 -20 -18 0
367 364 -15 0
367 -364 15 0
-367 364 15 0
-367 -364 -15 0
368 18 -16 0
368 -18 16 0
-368 18 16 0
-368 -18 -16 0
-369 364 0
-369 16 0
-369 15 -18 0
-369 -15 18 0
369 -364 15 18 -16 0
369 -364 -15 -18 -16 0
370 367 -13 0
370 -367 13 0
-370 367 13 0
-370 -367 -13 0
371 16 -14 0
371 -16 14 0
-371 16 14 0
-371 -16 -14 0
-372 367 0
-372 14 0
-372 13 -16 0
-372 -13 16 0
372 -367 13 16 -14 0
372 -367 -13 -16 -14 0
373 370 -11 0
373 -370 11 0
-373 370 11 0
-373 -370 -11 0
374 14 -12 0
374 -14 12 0
-374 14 12 0
-374 -14 -12 0
-375 370 0
-375 12 0
-375 11 -14 0
-375 -11 14 0
375 -370 11 14 -12 0
375 -370 -11 -14 -12 0
376 373 -9 0
376 -373 9 0
-376 373 9 0
-376 -373 -9 0
377 12 -10 0
377 -12 10 0
-377 12 10 0
-377 -12 -10 0
-378 373 0
-378 10 0
-378 9 -12 0
-378 -9 12 0
378 -373 9 12 -10 0
378 -373 -9 -12 -10 0
379 376 -7 0
379 -376 7 0
-379 376 7 0
-379 -376 -7 0
380 10 -8 0
380 -10 8 0
-380 10 8 0
-380 -10 -8 0
-381 376 0
-381 8 0
-381 7 -10 0
-381 -7 10 0
381 -376 7 10 -8 0
381 -376 -7 -10 -8 0
382 379 -5 0
382 -379 5 0
-382 379 5 0
-382 -379 -5 0
383 8 -6 0
383 -8 6 0
-383 8 6 0
-383 -8 -6 0
-384 379 0
-384 6 0
-384 5 -8 0
-384 -5 8 0
384 -379 5 8 -6 0
384 -379 -5 -8 -6 0
385 382 -3 0
385 -382 3 0
-385 382 3 0
-385 -382 -3 0
386 6 -4 0
386 -6 4 0
-386 6 4 0
-386 -6 -4 0
-387 382 0
-387 4 0
-387 3 -6 0
-387 -3 6 0
387 -382 3 6 -4 0
387 -382 -3 -6 -4 0
388 385 -1 0
388 -385 1 0
-388 385 1 0
-388 -385 -1 0
389 4 -2 0
389 -4 2 0
-389 4 2 0
-389 -4 -2 0
-390 385 0
-390 2 0
-390 1 -4 0
-390 -1 4 0
390 -385 1 4 -2 0
390 -385 -1 -4 -2 0
-388 0
-385 0
-389 0
-382 0
-386 0
-379 0
-383 0
-376 0
-380 0
-373 0
-377 0
-370 0
-374 0
-367 0
-371 0
-364 0
-368 0
-361 0
-365 0
-358 0
-362 0
-355 0
-359 0
-352 0
-356 0
-349 0
-353 0
-346 0
-350 0
-343 0
-347 0
-340 0
-344 0
-337 0
-341 0
-334 0
-338 0
-331 0
-335 0
-328 0
-332 0
-325 0
-329 0
-322 0
-326 0
-319 0
-323 0
-316 0
-320 0
-313 0
-317 0
-310 0
-314 0
-307 0
-311 0
-304 0
-308 0
-301 0
-305 0
-298 0
-302 0
-295 0
-299 0
-292 0
-296 0
-289 0
-293 0
-286 0
-290 0
-283 0
-287 0
-280 0
-284 0
-277 0
-281 0
-274 0
-278 0
-271 0
-275 0
-268 0
-272 0
-265 0
-269 0
-262 0
-266 0
-259 0
-263 0
-256 0
-260 0
-253 0
-257 0
-250 0
-254 0
-247 0
-251 0
-244 0
-248 0
-241 0
-245 0
-238 0
-242 0
-235 0
-239 0
-232 0
-236 0
-229 0
-233 0
-226 0
-230 0
-223 0
-227 0
-220 0
-224 0
-217 0
-221 0
-214 0
-218 0
-211 0
-215 0
-208 0
-212 0
-205 0
-209 0
-202 0
-206 0
-199 0
-203 0
-196 0
-200 0
-193 0
-197 0
-190 0
-194 0
-187 0
-191 0
-184 0
-188 0
-181 0
-185 0
-178 0
-182 0
-175 0
-179 0
-172 0
-176 0
-169 0
-173 0
-166 0
-170 0
-163 0
-167 0
-157 0
-164 0
